 36 160 999999 0
 30 40
 37 52 7
 49 49 30
 20 26 9
 40 30 21
 21 47 15
 17 63 19
 31 62 23
 42 41 19
 31 32 29
 5 25 23
 12 42 21
 36 16 10
 27 23 3
 17 33 41
 13 13 9
 42 57 8
 16 57 16
 8 52 10
 7 38 28
 27 68 7
 30 48 15
 43 67 14
 38 46 12
 46 10 23
 32 22 9
 45 35 15
 5 6 7
 10 17 27
 21 10 13
 5 64 11
 30 15 16
 39 16 10
 32 39 5
 25 32 25
 25 55 17
 48 28 18
